(set-logic QF_S)
(declare-fun var_0xINPUT_212287 () String)
(assert (and (= (len var_0xINPUT_212287) 0) (= (len var_0xINPUT_212287) 0) (not (= var_0xINPUT_212287 "Example:")) (not (= var_0xINPUT_212287 "qXdHDo7IZR"))))
(check-sat var_0xINPUT_212287)